(set-logic QF_LIA)
(set-info :ran/ran_6_1.smt2)
(set-info :smt-lib-version 2.0)
(declare-fun x0 () Int)
(declare-fun x1 () Real)
(declare-fun x2 () Real)
(declare-fun x3 () Real)
(declare-fun x4 () Real)
(declare-fun x5 () Real)
(define-fun ie0 () Bool (<= (+ (* 64 x3) (* 90 x2) (* 96 x3) ) 83))
(define-fun ie1 () Bool (<= (+ (* 96 x0) (* (- 96) x4) (* 99 x4) (* (- 34) x0) ) (- 34)))
(define-fun ie2 () Bool (<= (+ (* (- 47) x1) (* (- 100) x1) (* 16 x1) (* (- 42) x1) ) 35))
(define-fun ie3 () Bool (<= (+ (* (- 37) x3) (* 45 x4) (* (- 4) x3) (* (- 4) x3) (* 32 x2) (* (- 10) x2) (* (- 98) x2) (* (- 96) x5) ) 53))
(define-fun ie4 () Bool (<= (+ (* 24 x5) (* (- 44) x5) (* (- 23) x5) (* (- 15) x1) (* 88 x5) (* (- 88) x1) ) (- 47)))
(define-fun ie5 () Bool (<= (+ (* (- 14) x0) (* (- 44) x3) (* 90 x0) ) 80))
(define-fun ie6 () Bool (<= (+ (* 84 x0) (* (- 97) x1) (* (- 32) x1) ) (- 8)))
(define-fun ie7 () Bool (<= (+ (* 82 x4) (* 93 x5) (* 46 x4) (* (- 100) x5) (* (- 85) x0) (* 26 x0) (* (- 37) x5) (* (- 92) x0) ) (- 66)))
(define-fun ie8 () Bool (<= (+ (* (- 15) x0) (* (- 84) x1) (* 46 x5) ) 91))
(define-fun ie9 () Bool (<= (+ (* (- 8) x5) (* 9 x2) (* (- 67) x1) (* 53 x0) (* (- 18) x5) (* (- 100) x0) ) (- 66)))
(define-fun ie10 () Bool (<= (+ (* (- 78) x0) (* 47 x0) (* (- 56) x3) (* 88 x4) (* (- 81) x5) (* (- 46) x2) (* 94 x2) (* (- 7) x3) ) 50))
(define-fun ie11 () Bool (<= (+ (* 96 x3) (* 21 x3) (* (- 46) x0) (* (- 93) x1) (* (- 23) x5) (* 71 x1) ) 75))
(assert ie0)
(assert ie1)
(assert ie2)
(assert ie3)
(assert ie4)
(assert ie5)
(assert ie6)
(assert ie7)
(assert ie8)
(assert ie9)
(assert ie10)
(assert ie11)
(check-sat)
(exit)
